NAME : expansion
TYPE : TSP
DIMENSION : 50
EDGE_WEIGHT_TYPE : EUC_2D
NODE_COORD_SECTION
1 411330 380276
2 870104 294096
3 272205 162854
4 711274 36608
5 652975 301338
6 550350 159159
7 345989 412008
8 711786 370406
9 585533 424883
10 899649 186032
11 520897 433239
12 592615 358504
13 521596 448925
14 856784 430402
15 434786 403518
16 857967 283397
17 786273 317351
18 234633 27723
19 848444 328598
20 635419 226457
21 356431 447662
22 746106 322519
23 915336 188171
24 782979 335971
25 427193 33245
26 628493 307301
27 728103 207256
28 780940 349606
29 927457 988244
30 333832 42376
31 855469 279660
32 866608 197571
33 695324 307905
34 626394 205660
35 669238 686030
36 177744 19643
37 530483 368439
38 518230 34400
39 610022 384628
40 844948 253249
41 840179 978212
42 401612 1852
43 978359 85276
44 546980 408665
45 310153 267655
46 907321 182138
47 926194 984511
48 242974 132380
49 949783 294709
50 164553 18602
EOF
